\ Generated by MPModelProtoExporter
\   Name             : 
\   Format           : Free
\   Constraints      : 7
\   Variables        : 7
\     Binary         : 0
\     Integer        : 7
\     Continuous     : 0
Minimize
 Obj: +1 FRI +1 SAT +1 SUN +1 MON +1 TUE +1 WED +1 THU 
Subject to
 FRI: +1 FRI +1 MON +1 TUE +1 WED +1 THU  >= 19
 SAT: +1 FRI +1 SAT +1 TUE +1 WED +1 THU  >= 14
 SUN: +1 FRI +1 SAT +1 SUN +1 WED +1 THU  >= 12
 MON: +1 FRI +1 SAT +1 SUN +1 MON +1 THU  >= 20
 TUE: +1 FRI +1 SAT +1 SUN +1 MON +1 TUE  >= 16
 WED: +1 SAT +1 SUN +1 MON +1 TUE +1 WED  >= 13
 THU: +1 SUN +1 MON +1 TUE +1 WED +1 THU  >= 16
Bounds
 0 <= FRI <= inf
 0 <= SAT <= inf
 0 <= SUN <= inf
 0 <= MON <= inf
 0 <= TUE <= inf
 0 <= WED <= inf
 0 <= THU <= inf
Generals
 FRI
 SAT
 SUN
 MON
 TUE
 WED
 THU
End
